p cnf 103 179
-1 86 -95 -102 -103 0 
-2 86 -95 -102 -103 0 
-2 87 0 
-3 4 7 45 70 72 77 88 0 
-4 3 7 45 70 72 77 -5 6 15 20 61 67 89 0 
-6 5 15 20 61 67 -7 3 4 45 70 72 77 90 0 
-8 -9 -10 -11 23 49 62 -12 91 -95 -102 -103 0 
-13 31 68 82 -14 91 -95 -102 -103 0 
-15 5 6 20 61 67 89 0 
-16 -17 88 0 
-18 42 92 -95 -102 -103 0 
-19 93 -95 -102 -103 0 
-20 5 6 15 61 67 -21 92 -95 -102 -103 0 
-22 25 -23 11 49 62 94 -95 -102 -103 0 
-24 -25 22 87 0 
-26 -10 -14 91 -95 -102 -103 0 
-27 75 -25 22 95 -102 -103 0 
-27 75 -28 -29 94 -95 -102 -103 0 
-28 -30 94 -95 -102 -103 0 
-31 13 68 82 86 -95 -102 -103 0 
-32 36 89 0 
-33 -34 81 86 -95 -102 -103 0 
-29 -35 88 0 
-36 32 -25 22 95 -102 -103 0 
-37 -38 96 -95 -102 -103 0 
-27 75 -39 76 86 -95 -102 -103 0 
-27 75 -29 95 -102 -103 0 
-40 56 -41 55 96 -95 -102 -103 0 
-2 -42 18 97 -95 -102 -103 0 
-43 86 -95 -102 -103 0 
-44 -45 3 4 7 70 72 77 97 -95 -102 -103 0 
-46 -2 97 -95 -102 -103 0 
-34 81 -2 86 -95 -102 -103 0 
-2 -39 76 86 -95 -102 -103 0 
-2 -47 86 -95 -102 -103 0 
-27 75 -48 -2 -49 11 23 62 98 -95 -102 -103 0 
-50 99 -95 -102 -103 0 
-51 -2 -35 -10 91 -95 -102 -103 0 
-2 -52 91 -95 -102 -103 0 
-53 -20 5 6 15 61 67 -54 -55 41 -56 40 96 -95 -102 -103 0 
-43 -2 86 -95 -102 -103 0 
-57 58 78 100 -71 0 
-58 57 78 -59 86 -95 -102 -103 0 
-12 -60 80 -2 -61 5 6 15 20 67 -13 31 68 82 91 -95 -102 -103 0 
-2 95 -102 -103 0 
-2 101 -95 -102 -103 0 
-2 -62 11 23 49 98 -95 -102 -103 0 
-63 87 0 
-2 97 -95 -102 -103 0 
-64 95 -102 -103 0 
-65 97 -95 -102 -103 0 
-11 23 49 62 -13 31 68 82 -2 -12 -52 91 -95 -102 -103 0 
-2 -12 -14 91 -95 -102 -103 0 
-2 -66 102 -95 -103 0 
-2 -14 102 -95 -103 0 
-2 -10 102 -95 -103 0 
-2 -67 5 6 15 20 61 -68 13 31 82 -62 11 23 49 98 -95 -102 -103 0 
-2 -69 98 -95 -102 -103 0 
-2 -70 3 4 7 45 72 77 98 -95 -102 -103 0 
-71 100 103 -95 -102 0 
-72 3 4 7 45 70 77 -73 88 0 
-2 -74 101 -95 -102 -103 0 
-8 -2 89 0 
-75 27 -76 39 89 0 
-76 39 -32 36 89 0 
-77 3 4 7 45 70 72 93 -95 -102 -103 0 
-78 57 58 97 -95 -102 -103 0 
-78 57 58 -79 95 -102 -103 0 
-78 57 58 -80 60 101 -95 -102 -103 0 
-12 -36 32 -2 -66 91 -95 -102 -103 0 
-2 -33 102 -95 -103 0 
-2 -81 34 102 -95 -103 0 
-82 13 31 68 -2 97 -95 -102 -103 0 
-2 -83 97 -95 -102 -103 0 
-2 -84 102 -95 -103 0 
-85 -2 89 0 
48 48 -90 0 
36 74 100 0 
-30 92 97 0 
-29 40 -86 0 
1 5 -10 0 
-1 5 -25 0 
-43 90 99 0 
3 -6 39 0 
15 33 -90 0 
-35 48 -90 0 
-11 -91 92 0 
-40 -59 -75 0 
10 -42 -43 0 
-81 -94 -102 0 
24 80 -98 0 
6 54 -99 0 
11 -42 -83 0 
-53 -60 67 0 
84 -90 92 0 
-1 -14 -19 0 
2 41 -95 0 
14 -53 85 0 
41 50 -82 0 
1 -6 -21 0 
54 -55 -82 0 
-25 80 93 0 
4 -84 -93 0 
-71 83 89 0 
28 50 -73 0 
6 43 -74 0 
-18 53 96 0 
-17 -23 98 0 
-10 35 101 0 
28 47 -49 0 
-3 18 -24 0 
35 -51 68 0 
-35 -48 -89 0 
4 -29 -82 0 
-17 69 -100 0 
4 -46 56 0 
46 -66 83 0 
-22 24 38 0 
69 -87 87 0 
-1 21 27 0 
6 38 -69 0 
35 37 61 0 
-12 42 84 0 
-7 17 -42 0 
-45 57 93 0 
-12 61 84 0 
-15 -56 96 0 
-11 -31 -102 0 
49 -56 79 0 
-14 72 90 0 
-8 33 88 0 
-8 24 -62 0 
20 -55 -97 0 
31 58 60 0 
14 -29 69 0 
25 63 78 0 
-22 -49 87 0 
-12 56 -88 0 
-35 59 81 0 
-20 53 56 0 
-5 42 60 0 
-63 71 85 0 
47 -65 95 0 
34 87 102 0 
22 -29 -43 0 
-14 84 90 0 
-6 43 -44 0 
-40 68 84 0 
60 61 -99 0 
-42 97 98 0 
36 49 59 0 
69 -78 87 0 
-57 75 -103 0 
-7 -19 63 0 
-9 -23 -37 0 
15 21 84 0 
-5 30 -35 0 
54 -62 -81 0 
44 -69 -73 0 
-29 -77 78 0 
4 88 -90 0 
-46 -63 80 0 
26 -68 -83 0 
28 58 103 0 
-54 -88 98 0 
-4 -51 -80 0 
-37 -74 102 0 
78 96 -101 0 
-14 72 -86 0 
58 -63 -101 0 
-5 -36 68 0 
-41 98 -99 0 
-28 30 60 0 
-24 -28 -74 0 
50 65 -93 0 
-46 75 81 0 
18 51 79 0 
6 -33 -72 0 
20 50 -78 0 
